
  17    4
  10   10   10   10

   0   0   0   0   0   4 2 3 5 6 
   7  10  10  10  10   4 11 8 7 4 
   2  10  10  10  10   6 16 15 14 11 10 9 
  10  10  10  10  10   5 16 15 14 10 9 
   6  10  10  10  10   2 15 8 
   2  10  10  10  10   1 8 
   9  10  10  10  10   4 16 15 12 9 
   9  10  10  10  10   3 14 10 9 
   5  10  10  10  10   1 13 
   6  10  10  10  10   1 12 
   1  10  10  10  10   1 12 
   3  10  10  10  10   1 17
  10  10  10  10  10   1 17
   9  10  10  10  10   1 17
   8  10  10  10  10   1 17
   5  10  10  10  10   1 17
   0   0   0   0   0   0 
